c max 137  138  143  144  145  146  147  148  177  178  179  188  189  190  191  192  193  194  195  196  200  201  205  206 0
c ind 552  553  556  557  560  561  564  565  568  571  572  575  576  579  580  583  584  587  588  591  592  595  598  599  602  603  606  607  610  611  614  615  618  619  622  623  625  626  627 0
c This is a CNF SAT formula in the DIMACS CNF format,
c produced with the bc2cnf translator by Tommi Junttila;
c see http://users.ics.aalto.fi/tjunttil/circuits/index.html
c phi_Gamma_det <-> 1
c phi_Gamma <-> 1
c phi_T_feature_det <-> 1
c phi_T_transitions <-> 1
c phi_T_transitions_consistency <-> 1
c phi_T <-> 1
c phi_sim_leaves <-> 1
c phi_sim_transition <-> 1
c phi_sim <-> 1
c FORMULA <-> 1
c pi_1 <-> 2
c pi_0 <-> 80
c pi_approved_0 <-> 113
c tau_1_3_approved_1 <-> 137
c tau_1_3_approved_0 <-> 138
c tau_1_2_approved_1 <-> 143
c tau_1_2_approved_0 <-> 144
c tau_1_1_approved_1 <-> 145
c tau_1_1_approved_0 <-> 146
c tau_1_0_approved_1 <-> 147
c tau_1_0_approved_0 <-> 148
c tau_0_3_approved_1 <-> 177
c tau_0_3_approved_0 <-> 178
c tau_0_3_1 <-> 179
c tau_0_2_approved_1 <-> 188
c tau_0_2_approved_0 <-> 189
c tau_0_2_1 <-> 190
c tau_0_1_approved_1 <-> 191
c tau_0_1_approved_0 <-> 192
c tau_0_1_1 <-> 193
c tau_0_0_approved_1 <-> 194
c tau_0_0_approved_0 <-> 195
c tau_0_0_1 <-> 196
c lam_1_monthly_income <-> 200
c lam_1_age <-> 201
c lam_0_monthly_income <-> 205
c lam_0_age <-> 206
c phi_Gamma_val <-> 550
c monthly_income_P120200 <-> 552
c age_P6000 <-> 553
c monthly_income_P103900 <-> 556
c age_P2900 <-> 557
c monthly_income_P923700 <-> 560
c age_P4000 <-> 561
c monthly_income_P809100 <-> 564
c age_P5900 <-> 565
c monthly_income_P954200 <-> 568
c monthly_income_P910000 <-> 571
c age_P5500 <-> 572
c monthly_income_P265000 <-> 575
c age_P7700 <-> 576
c monthly_income_P557500 <-> 579
c age_P7600 <-> 580
c monthly_income_P236100 <-> 583
c age_P6600 <-> 584
c monthly_income_P216400 <-> 587
c age_P5700 <-> 588
c monthly_income_P798000 <-> 591
c age_P5600 <-> 592
c monthly_income_P344300 <-> 595
c monthly_income_P162700 <-> 598
c age_P5200 <-> 599
c monthly_income_P364600 <-> 602
c age_P4900 <-> 603
c monthly_income_P891700 <-> 606
c age_P3500 <-> 607
c monthly_income_P276800 <-> 610
c age_P3400 <-> 611
c monthly_income_P470800 <-> 614
c age_P7000 <-> 615
c monthly_income_P169200 <-> 618
c age_P5100 <-> 619
c monthly_income_P126100 <-> 622
c age_P3100 <-> 623
c pi_approved_1 <-> 625
c approved_P100 <-> 625
c monthly_income_P438300 <-> 626
c age_P4600 <-> 627
p cnf 627 1734
1 0
2 -3 0
2 -10 0
-2 10 3 0
-3 4 0
-3 59 0
3 -59 -4 0
-4 5 0
-4 200 0
4 -200 -5 0
5 -6 0
5 -63 0
-5 63 6 0
6 -7 0
6 -45 0
-6 45 7 0
7 -8 0
7 -47 0
-7 47 8 0
8 -9 0
8 -49 0
-8 49 9 0
9 -53 0
9 -69 0
-9 69 53 0
10 -11 0
10 -25 0
-10 25 11 0
-11 12 0
-11 76 0
11 -76 -12 0
-12 13 0
-12 200 0
12 -200 -13 0
13 -14 0
13 -31 0
-13 31 14 0
14 -15 0
14 -79 0
-14 79 15 0
15 -16 0
15 -33 0
-15 33 16 0
16 -17 0
16 -35 0
-16 35 17 0
17 -18 0
17 -37 0
-17 37 18 0
18 -19 0
18 -51 0
-18 51 19 0
19 -20 0
19 -65 0
-19 65 20 0
20 -21 0
20 -55 0
-20 55 21 0
21 -22 0
21 -67 0
-21 67 22 0
22 -23 0
22 -71 0
-22 71 23 0
23 -24 0
23 -38 0
-23 38 24 0
24 -56 0
24 -72 0
-24 72 56 0
25 -26 0
25 -39 0
-25 39 26 0
-26 27 0
-26 29 0
26 -29 -27 0
-27 28 0
-27 -138 0
27 138 -28 0
28 137 0
28 -625 0
-28 625 -137 0
-29 30 0
-29 201 0
29 -201 -30 0
30 -31 0
30 -32 0
-30 32 31 0
-31 552 0
-31 553 0
31 -553 -552 0
32 -33 0
32 -34 0
-32 34 33 0
-33 575 0
-33 576 0
33 -576 -575 0
34 -35 0
34 -36 0
-34 36 35 0
-35 579 0
-35 580 0
35 -580 -579 0
36 -37 0
36 -38 0
-36 38 37 0
-37 583 0
-37 584 0
37 -584 -583 0
-38 614 0
-38 615 0
38 -615 -614 0
39 -40 0
39 -57 0
-39 57 40 0
-40 41 0
-40 43 0
40 -43 -41 0
-41 42 0
-41 -144 0
41 144 -42 0
42 143 0
42 -625 0
-42 625 -143 0
-43 44 0
-43 201 0
43 -201 -44 0
44 -45 0
44 -46 0
-44 46 45 0
-45 564 0
-45 565 0
45 -565 -564 0
46 -47 0
46 -48 0
-46 48 47 0
-47 568 0
-47 599 0
47 -599 -568 0
48 -49 0
48 -50 0
-48 50 49 0
-49 571 0
-49 572 0
49 -572 -571 0
50 -51 0
50 -52 0
-50 52 51 0
-51 587 0
-51 588 0
51 -588 -587 0
52 -53 0
52 -54 0
-52 54 53 0
-53 591 0
-53 592 0
53 -592 -591 0
54 -55 0
54 -56 0
-54 56 55 0
-55 598 0
-55 599 0
55 -599 -598 0
-56 618 0
-56 619 0
56 -619 -618 0
57 -58 0
57 -75 0
-57 75 58 0
-58 59 0
-58 61 0
58 -61 -59 0
-59 60 0
-59 -146 0
59 146 -60 0
60 145 0
60 -625 0
-60 625 -145 0
-61 62 0
-61 201 0
61 -201 -62 0
62 -63 0
62 -64 0
-62 64 63 0
-63 560 0
-63 561 0
63 -561 -560 0
64 -65 0
64 -66 0
-64 66 65 0
-65 595 0
-65 623 0
65 -623 -595 0
66 -67 0
66 -68 0
-66 68 67 0
-67 602 0
-67 603 0
67 -603 -602 0
68 -69 0
68 -70 0
-68 70 69 0
-69 606 0
-69 607 0
69 -607 -606 0
70 -71 0
70 -72 0
-70 72 71 0
-71 610 0
-71 611 0
71 -611 -610 0
72 -73 0
72 -74 0
-72 74 73 0
-73 622 0
-73 623 0
73 -623 -622 0
-74 626 0
-74 627 0
74 -627 -626 0
-75 76 0
-75 78 0
75 -78 -76 0
-76 77 0
-76 -148 0
76 148 -77 0
77 147 0
77 -625 0
-77 625 -147 0
-78 79 0
-78 201 0
78 -201 -79 0
-79 556 0
-79 557 0
79 -557 -556 0
80 -81 0
80 -83 0
-80 83 81 0
80 0
-81 82 0
-81 102 0
81 -102 -82 0
-82 5 0
-82 205 0
82 -205 -5 0
83 -84 0
83 -86 0
-83 86 84 0
-84 85 0
-84 108 0
84 -108 -85 0
-85 13 0
-85 205 0
85 -205 -13 0
86 -87 0
86 -93 0
-86 93 87 0
-87 88 0
-87 92 0
87 -92 -88 0
-88 89 0
-88 90 0
88 -90 -89 0
89 177 0
89 -625 0
-89 625 -177 0
-90 -178 0
-90 91 0
90 -91 178 0
91 -2 0
91 179 0
-91 -179 2 0
-92 30 0
-92 206 0
92 -206 -30 0
93 -94 0
93 -100 0
-93 100 94 0
-94 95 0
-94 99 0
94 -99 -95 0
-95 96 0
-95 97 0
95 -97 -96 0
96 188 0
96 -625 0
-96 625 -188 0
-97 -189 0
-97 98 0
97 -98 189 0
98 -2 0
98 190 0
-98 -190 2 0
-99 44 0
-99 206 0
99 -206 -44 0
100 -101 0
100 -107 0
-100 107 101 0
-101 102 0
-101 106 0
101 -106 -102 0
-102 103 0
-102 104 0
102 -104 -103 0
103 191 0
103 -625 0
-103 625 -191 0
-104 -192 0
-104 105 0
104 -105 192 0
105 -2 0
105 193 0
-105 -193 2 0
-106 62 0
-106 206 0
106 -206 -62 0
-107 108 0
-107 112 0
107 -112 -108 0
-108 109 0
-108 110 0
108 -110 -109 0
109 194 0
109 -625 0
-109 625 -194 0
-110 -195 0
-110 111 0
110 -111 195 0
111 -2 0
111 196 0
-111 -196 2 0
-112 79 0
-112 206 0
112 -206 -79 0
-113 0
114 200 0
114 -115 0
-114 115 -200 0
114 0
-115 -137 0
-115 116 0
115 -116 137 0
-116 -138 0
-116 117 0
116 -117 138 0
-117 -143 0
-117 -144 0
117 144 143 0
118 205 0
118 -119 0
-118 119 -205 0
118 0
-119 -177 0
-119 120 0
119 -120 177 0
-120 -178 0
-120 121 0
120 -121 178 0
-121 -179 0
-121 122 0
121 -122 179 0
-122 -188 0
-122 123 0
122 -123 188 0
-123 -189 0
-123 -190 0
123 190 189 0
124 200 0
124 -125 0
-124 125 -200 0
124 0
-125 126 0
-125 129 0
125 -129 -126 0
126 -127 0
126 -128 0
-126 128 127 0
-127 -146 0
-127 145 0
127 -145 146 0
-128 -145 0
-128 146 0
128 -146 145 0
129 -130 0
129 -131 0
-129 131 130 0
-130 -148 0
-130 147 0
130 -147 148 0
-131 -147 0
-131 148 0
131 -148 147 0
132 201 0
132 -133 0
-132 133 -201 0
132 0
-133 134 0
-133 139 0
133 -139 -134 0
134 -135 0
134 -136 0
-134 136 135 0
-135 -138 0
-135 137 0
135 -137 138 0
-136 -137 0
-136 138 0
136 -138 137 0
-139 125 0
-139 140 0
139 -140 -125 0
140 -141 0
140 -142 0
-140 142 141 0
-141 -144 0
-141 143 0
141 -143 144 0
-142 -143 0
-142 144 0
142 -144 143 0
149 205 0
149 -150 0
-149 150 -205 0
149 0
-150 151 0
-150 159 0
150 -159 -151 0
151 -152 0
151 -157 0
-151 157 152 0
152 -153 0
152 -155 0
-152 155 153 0
-153 154 0
-153 191 0
153 -191 -154 0
-154 -192 0
-154 -193 0
154 193 192 0
-155 156 0
-155 192 0
155 -192 -156 0
-156 -191 0
-156 -193 0
156 193 191 0
-157 158 0
-157 193 0
157 -193 -158 0
-158 -191 0
-158 -192 0
158 192 191 0
159 -160 0
159 -165 0
-159 165 160 0
160 -161 0
160 -163 0
-160 163 161 0
-161 162 0
-161 194 0
161 -194 -162 0
-162 -195 0
-162 -196 0
162 196 195 0
-163 164 0
-163 195 0
163 -195 -164 0
-164 -194 0
-164 -196 0
164 196 194 0
-165 166 0
-165 196 0
165 -196 -166 0
-166 -194 0
-166 -195 0
166 195 194 0
167 206 0
167 -168 0
-167 168 -206 0
167 0
-168 169 0
-168 180 0
168 -180 -169 0
169 -170 0
169 -175 0
-169 175 170 0
170 -171 0
170 -173 0
-170 173 171 0
-171 172 0
-171 177 0
171 -177 -172 0
-172 -178 0
-172 -179 0
172 179 178 0
-173 174 0
-173 178 0
173 -178 -174 0
-174 -177 0
-174 -179 0
174 179 177 0
-175 176 0
-175 179 0
175 -179 -176 0
-176 -177 0
-176 -178 0
176 178 177 0
-180 150 0
-180 181 0
180 -181 -150 0
181 -182 0
181 -186 0
-181 186 182 0
182 -183 0
182 -184 0
-182 184 183 0
-183 123 0
-183 188 0
183 -188 -123 0
-184 185 0
-184 189 0
184 -189 -185 0
-185 -188 0
-185 -190 0
185 190 188 0
-186 187 0
-186 190 0
186 -190 -187 0
-187 -188 0
-187 -189 0
187 189 188 0
197 -198 0
197 -199 0
-197 199 198 0
197 0
-198 -201 0
-198 200 0
198 -200 201 0
-199 -200 0
-199 201 0
199 -201 200 0
202 -203 0
202 -204 0
-202 204 203 0
202 0
-203 -206 0
-203 205 0
203 -205 206 0
-204 -205 0
-204 206 0
204 -206 205 0
207 556 0
207 552 0
-207 -552 -556 0
207 0
208 560 0
208 -209 0
-208 209 -560 0
208 0
-209 -556 0
-209 -552 0
209 552 556 0
210 564 0
210 -211 0
-210 211 -564 0
210 0
-211 -552 0
-211 212 0
211 -212 552 0
-212 -556 0
-212 -560 0
212 560 556 0
213 568 0
213 -214 0
-213 214 -568 0
213 0
-214 -552 0
-214 215 0
214 -215 552 0
-215 -556 0
-215 216 0
215 -216 556 0
-216 -560 0
-216 -564 0
216 564 560 0
217 571 0
217 -218 0
-217 218 -571 0
217 0
-218 -552 0
-218 219 0
218 -219 552 0
-219 -556 0
-219 220 0
219 -220 556 0
-220 -560 0
-220 221 0
220 -221 560 0
-221 -564 0
-221 -568 0
221 568 564 0
222 575 0
222 -223 0
-222 223 -575 0
222 0
-223 -552 0
-223 224 0
223 -224 552 0
-224 -556 0
-224 225 0
224 -225 556 0
-225 -560 0
-225 226 0
225 -226 560 0
-226 -564 0
-226 227 0
226 -227 564 0
-227 -568 0
-227 -571 0
227 571 568 0
228 579 0
228 -229 0
-228 229 -579 0
228 0
-229 -552 0
-229 230 0
229 -230 552 0
-230 -556 0
-230 231 0
230 -231 556 0
-231 -560 0
-231 232 0
231 -232 560 0
-232 -564 0
-232 233 0
232 -233 564 0
-233 -568 0
-233 234 0
233 -234 568 0
-234 -571 0
-234 -575 0
234 575 571 0
235 583 0
235 -236 0
-235 236 -583 0
235 0
-236 -552 0
-236 237 0
236 -237 552 0
-237 -556 0
-237 238 0
237 -238 556 0
-238 -560 0
-238 239 0
238 -239 560 0
-239 -564 0
-239 240 0
239 -240 564 0
-240 -568 0
-240 241 0
240 -241 568 0
-241 -571 0
-241 242 0
241 -242 571 0
-242 -575 0
-242 -579 0
242 579 575 0
243 587 0
243 -244 0
-243 244 -587 0
243 0
-244 -552 0
-244 245 0
244 -245 552 0
-245 -556 0
-245 246 0
245 -246 556 0
-246 -560 0
-246 247 0
246 -247 560 0
-247 -564 0
-247 248 0
247 -248 564 0
-248 -568 0
-248 249 0
248 -249 568 0
-249 -571 0
-249 250 0
249 -250 571 0
-250 -575 0
-250 251 0
250 -251 575 0
-251 -579 0
-251 -583 0
251 583 579 0
252 591 0
252 -253 0
-252 253 -591 0
252 0
-253 -552 0
-253 254 0
253 -254 552 0
-254 -556 0
-254 255 0
254 -255 556 0
-255 -560 0
-255 256 0
255 -256 560 0
-256 -564 0
-256 257 0
256 -257 564 0
-257 -568 0
-257 258 0
257 -258 568 0
-258 -571 0
-258 259 0
258 -259 571 0
-259 -575 0
-259 260 0
259 -260 575 0
-260 -579 0
-260 261 0
260 -261 579 0
-261 -583 0
-261 -587 0
261 587 583 0
262 595 0
262 -263 0
-262 263 -595 0
262 0
-263 -552 0
-263 264 0
263 -264 552 0
-264 -556 0
-264 265 0
264 -265 556 0
-265 -560 0
-265 266 0
265 -266 560 0
-266 -564 0
-266 267 0
266 -267 564 0
-267 -568 0
-267 268 0
267 -268 568 0
-268 -571 0
-268 269 0
268 -269 571 0
-269 -575 0
-269 270 0
269 -270 575 0
-270 -579 0
-270 271 0
270 -271 579 0
-271 -583 0
-271 272 0
271 -272 583 0
-272 -587 0
-272 -591 0
272 591 587 0
273 598 0
273 -274 0
-273 274 -598 0
273 0
-274 -552 0
-274 275 0
274 -275 552 0
-275 -556 0
-275 276 0
275 -276 556 0
-276 -560 0
-276 277 0
276 -277 560 0
-277 -564 0
-277 278 0
277 -278 564 0
-278 -568 0
-278 279 0
278 -279 568 0
-279 -571 0
-279 280 0
279 -280 571 0
-280 -575 0
-280 281 0
280 -281 575 0
-281 -579 0
-281 282 0
281 -282 579 0
-282 -583 0
-282 283 0
282 -283 583 0
-283 -587 0
-283 284 0
283 -284 587 0
-284 -591 0
-284 -595 0
284 595 591 0
285 602 0
285 -286 0
-285 286 -602 0
285 0
-286 -552 0
-286 287 0
286 -287 552 0
-287 -556 0
-287 288 0
287 -288 556 0
-288 -560 0
-288 289 0
288 -289 560 0
-289 -564 0
-289 290 0
289 -290 564 0
-290 -568 0
-290 291 0
290 -291 568 0
-291 -571 0
-291 292 0
291 -292 571 0
-292 -575 0
-292 293 0
292 -293 575 0
-293 -579 0
-293 294 0
293 -294 579 0
-294 -583 0
-294 295 0
294 -295 583 0
-295 -587 0
-295 296 0
295 -296 587 0
-296 -591 0
-296 297 0
296 -297 591 0
-297 -595 0
-297 -598 0
297 598 595 0
298 606 0
298 -299 0
-298 299 -606 0
298 0
-299 -552 0
-299 300 0
299 -300 552 0
-300 -556 0
-300 301 0
300 -301 556 0
-301 -560 0
-301 302 0
301 -302 560 0
-302 -564 0
-302 303 0
302 -303 564 0
-303 -568 0
-303 304 0
303 -304 568 0
-304 -571 0
-304 305 0
304 -305 571 0
-305 -575 0
-305 306 0
305 -306 575 0
-306 -579 0
-306 307 0
306 -307 579 0
-307 -583 0
-307 308 0
307 -308 583 0
-308 -587 0
-308 309 0
308 -309 587 0
-309 -591 0
-309 310 0
309 -310 591 0
-310 -595 0
-310 311 0
310 -311 595 0
-311 -598 0
-311 -602 0
311 602 598 0
312 610 0
312 -313 0
-312 313 -610 0
312 0
-313 -552 0
-313 314 0
313 -314 552 0
-314 -556 0
-314 315 0
314 -315 556 0
-315 -560 0
-315 316 0
315 -316 560 0
-316 -564 0
-316 317 0
316 -317 564 0
-317 -568 0
-317 318 0
317 -318 568 0
-318 -571 0
-318 319 0
318 -319 571 0
-319 -575 0
-319 320 0
319 -320 575 0
-320 -579 0
-320 321 0
320 -321 579 0
-321 -583 0
-321 322 0
321 -322 583 0
-322 -587 0
-322 323 0
322 -323 587 0
-323 -591 0
-323 324 0
323 -324 591 0
-324 -595 0
-324 325 0
324 -325 595 0
-325 -598 0
-325 326 0
325 -326 598 0
-326 -602 0
-326 -606 0
326 606 602 0
327 614 0
327 -328 0
-327 328 -614 0
327 0
-328 -552 0
-328 329 0
328 -329 552 0
-329 -556 0
-329 330 0
329 -330 556 0
-330 -560 0
-330 331 0
330 -331 560 0
-331 -564 0
-331 332 0
331 -332 564 0
-332 -568 0
-332 333 0
332 -333 568 0
-333 -571 0
-333 334 0
333 -334 571 0
-334 -575 0
-334 335 0
334 -335 575 0
-335 -579 0
-335 336 0
335 -336 579 0
-336 -583 0
-336 337 0
336 -337 583 0
-337 -587 0
-337 338 0
337 -338 587 0
-338 -591 0
-338 339 0
338 -339 591 0
-339 -595 0
-339 340 0
339 -340 595 0
-340 -598 0
-340 341 0
340 -341 598 0
-341 -602 0
-341 342 0
341 -342 602 0
-342 -606 0
-342 -610 0
342 610 606 0
343 618 0
343 -344 0
-343 344 -618 0
343 0
-344 -552 0
-344 345 0
344 -345 552 0
-345 -556 0
-345 346 0
345 -346 556 0
-346 -560 0
-346 347 0
346 -347 560 0
-347 -564 0
-347 348 0
347 -348 564 0
-348 -568 0
-348 349 0
348 -349 568 0
-349 -571 0
-349 350 0
349 -350 571 0
-350 -575 0
-350 351 0
350 -351 575 0
-351 -579 0
-351 352 0
351 -352 579 0
-352 -583 0
-352 353 0
352 -353 583 0
-353 -587 0
-353 354 0
353 -354 587 0
-354 -591 0
-354 355 0
354 -355 591 0
-355 -595 0
-355 356 0
355 -356 595 0
-356 -598 0
-356 357 0
356 -357 598 0
-357 -602 0
-357 358 0
357 -358 602 0
-358 -606 0
-358 359 0
358 -359 606 0
-359 -610 0
-359 -614 0
359 614 610 0
360 622 0
360 -361 0
-360 361 -622 0
360 0
-361 -552 0
-361 362 0
361 -362 552 0
-362 -556 0
-362 363 0
362 -363 556 0
-363 -560 0
-363 364 0
363 -364 560 0
-364 -564 0
-364 365 0
364 -365 564 0
-365 -568 0
-365 366 0
365 -366 568 0
-366 -571 0
-366 367 0
366 -367 571 0
-367 -575 0
-367 368 0
367 -368 575 0
-368 -579 0
-368 369 0
368 -369 579 0
-369 -583 0
-369 370 0
369 -370 583 0
-370 -587 0
-370 371 0
370 -371 587 0
-371 -591 0
-371 372 0
371 -372 591 0
-372 -595 0
-372 373 0
372 -373 595 0
-373 -598 0
-373 374 0
373 -374 598 0
-374 -602 0
-374 375 0
374 -375 602 0
-375 -606 0
-375 376 0
375 -376 606 0
-376 -610 0
-376 377 0
376 -377 610 0
-377 -614 0
-377 -618 0
377 618 614 0
378 626 0
378 -379 0
-378 379 -626 0
378 0
-379 -552 0
-379 380 0
379 -380 552 0
-380 -556 0
-380 381 0
380 -381 556 0
-381 -560 0
-381 382 0
381 -382 560 0
-382 -564 0
-382 383 0
382 -383 564 0
-383 -568 0
-383 384 0
383 -384 568 0
-384 -571 0
-384 385 0
384 -385 571 0
-385 -575 0
-385 386 0
385 -386 575 0
-386 -579 0
-386 387 0
386 -387 579 0
-387 -583 0
-387 388 0
387 -388 583 0
-388 -587 0
-388 389 0
388 -389 587 0
-389 -591 0
-389 390 0
389 -390 591 0
-390 -595 0
-390 391 0
390 -391 595 0
-391 -598 0
-391 392 0
391 -392 598 0
-392 -602 0
-392 393 0
392 -393 602 0
-393 -606 0
-393 394 0
393 -394 606 0
-394 -610 0
-394 395 0
394 -395 610 0
-395 -614 0
-395 396 0
395 -396 614 0
-396 -618 0
-396 -622 0
396 622 618 0
397 557 0
397 553 0
-397 -553 -557 0
397 0
398 561 0
398 -399 0
-398 399 -561 0
398 0
-399 -557 0
-399 -553 0
399 553 557 0
400 565 0
400 -401 0
-400 401 -565 0
400 0
-401 -553 0
-401 402 0
401 -402 553 0
-402 -557 0
-402 -561 0
402 561 557 0
403 572 0
403 -404 0
-403 404 -572 0
403 0
-404 -553 0
-404 405 0
404 -405 553 0
-405 -557 0
-405 406 0
405 -406 557 0
-406 -561 0
-406 -565 0
406 565 561 0
407 576 0
407 -408 0
-407 408 -576 0
407 0
-408 -553 0
-408 409 0
408 -409 553 0
-409 -557 0
-409 410 0
409 -410 557 0
-410 -561 0
-410 411 0
410 -411 561 0
-411 -565 0
-411 -572 0
411 572 565 0
412 580 0
412 -413 0
-412 413 -580 0
412 0
-413 -553 0
-413 414 0
413 -414 553 0
-414 -557 0
-414 415 0
414 -415 557 0
-415 -561 0
-415 416 0
415 -416 561 0
-416 -565 0
-416 417 0
416 -417 565 0
-417 -572 0
-417 -576 0
417 576 572 0
418 584 0
418 -419 0
-418 419 -584 0
418 0
-419 -553 0
-419 420 0
419 -420 553 0
-420 -557 0
-420 421 0
420 -421 557 0
-421 -561 0
-421 422 0
421 -422 561 0
-422 -565 0
-422 423 0
422 -423 565 0
-423 -572 0
-423 424 0
423 -424 572 0
-424 -576 0
-424 -580 0
424 580 576 0
425 588 0
425 -426 0
-425 426 -588 0
425 0
-426 -553 0
-426 427 0
426 -427 553 0
-427 -557 0
-427 428 0
427 -428 557 0
-428 -561 0
-428 429 0
428 -429 561 0
-429 -565 0
-429 430 0
429 -430 565 0
-430 -572 0
-430 431 0
430 -431 572 0
-431 -576 0
-431 432 0
431 -432 576 0
-432 -580 0
-432 -584 0
432 584 580 0
433 592 0
433 -434 0
-433 434 -592 0
433 0
-434 -553 0
-434 435 0
434 -435 553 0
-435 -557 0
-435 436 0
435 -436 557 0
-436 -561 0
-436 437 0
436 -437 561 0
-437 -565 0
-437 438 0
437 -438 565 0
-438 -572 0
-438 439 0
438 -439 572 0
-439 -576 0
-439 440 0
439 -440 576 0
-440 -580 0
-440 441 0
440 -441 580 0
-441 -584 0
-441 -588 0
441 588 584 0
442 599 0
442 -443 0
-442 443 -599 0
442 0
-443 -553 0
-443 444 0
443 -444 553 0
-444 -557 0
-444 445 0
444 -445 557 0
-445 -561 0
-445 446 0
445 -446 561 0
-446 -565 0
-446 447 0
446 -447 565 0
-447 -572 0
-447 448 0
447 -448 572 0
-448 -576 0
-448 449 0
448 -449 576 0
-449 -580 0
-449 450 0
449 -450 580 0
-450 -584 0
-450 451 0
450 -451 584 0
-451 -588 0
-451 -592 0
451 592 588 0
452 603 0
452 -453 0
-452 453 -603 0
452 0
-453 -553 0
-453 454 0
453 -454 553 0
-454 -557 0
-454 455 0
454 -455 557 0
-455 -561 0
-455 456 0
455 -456 561 0
-456 -565 0
-456 457 0
456 -457 565 0
-457 -572 0
-457 458 0
457 -458 572 0
-458 -576 0
-458 459 0
458 -459 576 0
-459 -580 0
-459 460 0
459 -460 580 0
-460 -584 0
-460 461 0
460 -461 584 0
-461 -588 0
-461 462 0
461 -462 588 0
-462 -592 0
-462 -599 0
462 599 592 0
463 607 0
463 -464 0
-463 464 -607 0
463 0
-464 -553 0
-464 465 0
464 -465 553 0
-465 -557 0
-465 466 0
465 -466 557 0
-466 -561 0
-466 467 0
466 -467 561 0
-467 -565 0
-467 468 0
467 -468 565 0
-468 -572 0
-468 469 0
468 -469 572 0
-469 -576 0
-469 470 0
469 -470 576 0
-470 -580 0
-470 471 0
470 -471 580 0
-471 -584 0
-471 472 0
471 -472 584 0
-472 -588 0
-472 473 0
472 -473 588 0
-473 -592 0
-473 474 0
473 -474 592 0
-474 -599 0
-474 -603 0
474 603 599 0
475 611 0
475 -476 0
-475 476 -611 0
475 0
-476 -553 0
-476 477 0
476 -477 553 0
-477 -557 0
-477 478 0
477 -478 557 0
-478 -561 0
-478 479 0
478 -479 561 0
-479 -565 0
-479 480 0
479 -480 565 0
-480 -572 0
-480 481 0
480 -481 572 0
-481 -576 0
-481 482 0
481 -482 576 0
-482 -580 0
-482 483 0
482 -483 580 0
-483 -584 0
-483 484 0
483 -484 584 0
-484 -588 0
-484 485 0
484 -485 588 0
-485 -592 0
-485 486 0
485 -486 592 0
-486 -599 0
-486 487 0
486 -487 599 0
-487 -603 0
-487 -607 0
487 607 603 0
488 615 0
488 -489 0
-488 489 -615 0
488 0
-489 -553 0
-489 490 0
489 -490 553 0
-490 -557 0
-490 491 0
490 -491 557 0
-491 -561 0
-491 492 0
491 -492 561 0
-492 -565 0
-492 493 0
492 -493 565 0
-493 -572 0
-493 494 0
493 -494 572 0
-494 -576 0
-494 495 0
494 -495 576 0
-495 -580 0
-495 496 0
495 -496 580 0
-496 -584 0
-496 497 0
496 -497 584 0
-497 -588 0
-497 498 0
497 -498 588 0
-498 -592 0
-498 499 0
498 -499 592 0
-499 -599 0
-499 500 0
499 -500 599 0
-500 -603 0
-500 501 0
500 -501 603 0
-501 -607 0
-501 -611 0
501 611 607 0
502 619 0
502 -503 0
-502 503 -619 0
502 0
-503 -553 0
-503 504 0
503 -504 553 0
-504 -557 0
-504 505 0
504 -505 557 0
-505 -561 0
-505 506 0
505 -506 561 0
-506 -565 0
-506 507 0
506 -507 565 0
-507 -572 0
-507 508 0
507 -508 572 0
-508 -576 0
-508 509 0
508 -509 576 0
-509 -580 0
-509 510 0
509 -510 580 0
-510 -584 0
-510 511 0
510 -511 584 0
-511 -588 0
-511 512 0
511 -512 588 0
-512 -592 0
-512 513 0
512 -513 592 0
-513 -599 0
-513 514 0
513 -514 599 0
-514 -603 0
-514 515 0
514 -515 603 0
-515 -607 0
-515 516 0
515 -516 607 0
-516 -611 0
-516 -615 0
516 615 611 0
517 623 0
517 -518 0
-517 518 -623 0
517 0
-518 -553 0
-518 519 0
518 -519 553 0
-519 -557 0
-519 520 0
519 -520 557 0
-520 -561 0
-520 521 0
520 -521 561 0
-521 -565 0
-521 522 0
521 -522 565 0
-522 -572 0
-522 523 0
522 -523 572 0
-523 -576 0
-523 524 0
523 -524 576 0
-524 -580 0
-524 525 0
524 -525 580 0
-525 -584 0
-525 526 0
525 -526 584 0
-526 -588 0
-526 527 0
526 -527 588 0
-527 -592 0
-527 528 0
527 -528 592 0
-528 -599 0
-528 529 0
528 -529 599 0
-529 -603 0
-529 530 0
529 -530 603 0
-530 -607 0
-530 531 0
530 -531 607 0
-531 -611 0
-531 532 0
531 -532 611 0
-532 -615 0
-532 -619 0
532 619 615 0
533 627 0
533 -534 0
-533 534 -627 0
533 0
-534 -553 0
-534 535 0
534 -535 553 0
-535 -557 0
-535 536 0
535 -536 557 0
-536 -561 0
-536 537 0
536 -537 561 0
-537 -565 0
-537 538 0
537 -538 565 0
-538 -572 0
-538 539 0
538 -539 572 0
-539 -576 0
-539 540 0
539 -540 576 0
-540 -580 0
-540 541 0
540 -541 580 0
-541 -584 0
-541 542 0
541 -542 584 0
-542 -588 0
-542 543 0
542 -543 588 0
-543 -592 0
-543 544 0
543 -544 592 0
-544 -599 0
-544 545 0
544 -545 599 0
-545 -603 0
-545 546 0
545 -546 603 0
-546 -607 0
-546 547 0
546 -547 607 0
-547 -611 0
-547 548 0
547 -548 611 0
-548 -615 0
-548 549 0
548 -549 615 0
-549 -619 0
-549 -623 0
549 623 619 0
550 -551 0
550 -554 0
-550 554 551 0
550 0
-551 31 0
-551 625 0
551 -625 -31 0
554 -555 0
554 -558 0
-554 558 555 0
-555 79 0
-555 625 0
555 -625 -79 0
558 -559 0
558 -562 0
-558 562 559 0
-559 63 0
-559 625 0
559 -625 -63 0
562 -563 0
562 -566 0
-562 566 563 0
-563 45 0
-563 625 0
563 -625 -45 0
566 -567 0
566 -569 0
-566 569 567 0
-567 47 0
-567 625 0
567 -625 -47 0
569 -570 0
569 -573 0
-569 573 570 0
-570 49 0
-570 625 0
570 -625 -49 0
573 -574 0
573 -577 0
-573 577 574 0
-574 33 0
-574 625 0
574 -625 -33 0
577 -578 0
577 -581 0
-577 581 578 0
-578 35 0
-578 625 0
578 -625 -35 0
581 -582 0
581 -585 0
-581 585 582 0
-582 37 0
-582 625 0
582 -625 -37 0
585 -586 0
585 -589 0
-585 589 586 0
-586 51 0
-586 625 0
586 -625 -51 0
589 -590 0
589 -593 0
-589 593 590 0
-590 53 0
-590 625 0
590 -625 -53 0
593 -594 0
593 -596 0
-593 596 594 0
-594 65 0
-594 625 0
594 -625 -65 0
596 -597 0
596 -600 0
-596 600 597 0
-597 55 0
-597 625 0
597 -625 -55 0
600 -601 0
600 -604 0
-600 604 601 0
-601 67 0
-601 625 0
601 -625 -67 0
604 -605 0
604 -608 0
-604 608 605 0
-605 69 0
-605 625 0
605 -625 -69 0
608 -609 0
608 -612 0
-608 612 609 0
-609 71 0
-609 625 0
609 -625 -71 0
612 -613 0
612 -616 0
-612 616 613 0
-613 38 0
-613 625 0
613 -625 -38 0
616 -617 0
616 -620 0
-616 620 617 0
-617 56 0
-617 625 0
617 -625 -56 0
620 -621 0
620 -624 0
-620 624 621 0
-621 73 0
-621 625 0
621 -625 -73 0
-624 74 0
-624 625 0
624 -625 -74 0
